6 9 18 16 14 3 0 15 7 2 17 1 19 12 8 5 13 4 10 11  
6 9 19 18 3 14 16 7 2 17 1 15 13 4 0 8 5 10 12 11  
6 9 16 19 3 14 7 18 2 17 1 15 13 4 0 8 5 10 12 11  
6 9 16 19 7 14 3 18 2 17 1 15 13 0 4 8 5 10 12 11  
6 9 19 3 16 7 2 15 18 12 17 1 13 14 0 4 8 5 10 11  
6 9 16 3 18 14 8 19 7 2 17 1 15 13 4 0 12 5 10 11  
6 9 16 18 14 3 0 15 7 2 17 1 19 12 8 5 13 4 10 11  
9 6 18 16 14 3 7 2 17 1 19 8 15 13 0 4 12 5 10 11  
6 9 19 3 16 18 14 7 2 17 1 15 13 12 0 4 8 5 10 11  
6 9 19 7 16 3 14 18 2 17 1 15 13 4 0 8 5 10 11 12  
6 9 16 3 18 14 8 19 7 2 17 1 15 13 4 0 12 5 10 11  
6 9 16 19 18 14 3 7 2 17 1 15 13 8 4 0 12 5 10 11  
9 6 19 7 16 14 3 18 2 17 1 15 13 8 4 0 12 5 10 11  
6 9 19 18 3 16 7 2 15 17 13 14 4 1 0 8 5 10 12 11  
6 9 19 7 3 16 2 14 18 12 17 1 15 13 0 4 8 5 10 11  
6 9 19 16 7 14 3 18 2 17 1 15 13 8 0 4 12 5 10 11  
6 9 19 7 16 14 3 18 2 17 1 15 13 4 12 0 5 10 11 8  
6 9 18 16 14 3 0 15 7 2 17 1 19 12 8 5 13 4 10 11  
6 18 9 16 14 3 0 15 7 2 17 1 19 12 13 4 8 5 10 11  
9 6 18 16 14 3 7 2 17 1 19 8 15 13 12 4 0 5 10 11  
6 9 19 7 16 14 3 18 2 17 1 15 13 12 0 4 5 10 11 8  
6 9 16 3 19 18 14 7 2 17 1 8 15 13 4 0 12 5 10 11  
6 9 19 18 16 3 14 7 2 17 1 8 15 13 0 4 12 5 10 11  
6 9 19 3 7 2 15 16 18 12 17 1 13 14 0 4 8 5 10 11  
6 9 16 3 14 18 7 2 17 1 19 15 13 0 8 4 12 5 10 11  
6 9 16 3 14 19 7 17 8 2 18 1 15 13 4 0 12 5 10 11  
6 9 16 3 14 18 0 2 7 15 17 1 19 12 8 5 13 4 10 11  
6 9 16 18 14 3 7 2 17 1 19 15 13 8 12 0 4 5 10 11  
6 9 19 7 3 16 2 14 18 12 17 1 15 13 0 4 8 5 10 11  
9 6 18 16 14 3 7 2 17 1 19 8 15 13 0 4 12 5 10 11  
6 9 19 7 16 3 14 18 2 17 1 15 13 8 0 12 4 5 10 11  
6 9 19 3 16 7 15 18 2 17 13 1 14 4 0 8 5 10 12 11  
6 9 19 3 16 7 15 2 18 12 17 1 0 14 13 4 8 5 10 11  
6 9 19 18 14 3 16 7 2 17 1 15 13 4 0 8 5 10 12 11  
6 9 19 7 16 14 3 18 2 17 1 15 13 0 8 4 12 5 10 11  
6 9 19 7 16 14 3 18 2 17 1 15 13 0 8 4 12 5 10 11  
6 9 16 19 7 14 3 18 2 17 1 15 13 12 0 4 8 5 10 11  
